(set-logic QF_S)

( declare-fun  x1 () String )
 ( declare-fun  x2 () String )
 ( declare-fun  z1 () String )
 ( declare-fun  z2 () String )
 ( declare-fun  y1 () String )
 ( declare-fun  y2 () String )
 ( declare-fun  t1 () String )
 ( declare-fun  t2 () String )
 ( declare-fun  t3 () String )
 ( declare-fun  t4 () String )
 ( assert ( =( str.++( str.++( str.++( str.++ x1  "abdc"  )  x2  ) ( str.++( str.++ z1  "af"  )  z2  )  ) ( str.++( str.++ y1 ( str.++ t3 ( str.++ t1  t2  )  )  )  y2  )  ) ( str.++( str.++( str.++( str.++ x2  "dcab"  )  x1  ) ( str.++( str.++ z2  "fe"  )  z1  )  ) ( str.++( str.++ y2  t4  )  y1  )  )  ) )
 ( check-sat )
 